NAME : pairopt
TYPE : ACVRP
DIMENSION : 5
EDGE_WEIGHT_TYPE : EXPLICIT
EDGE_WEIGHT_FORMAT : FULL_MATRIX
CAPACITY : 7500
VEHICLES : 2
EDGE_WEIGHT_SECTION
100000 -100000 -100000 100000 100000 
100000 100000 1000000 77 50227 
100000 1000000 100000 340 50131 
0 77 340 100000 100500 
0 50227 50131 100500 100000 
DEMAND_SECTION
1 0
2 0
3 0
4 5000
5 5000
DEPOT_SECTION
1
EOF